p cnf 946 2109
a 1 2 3 4 5 6 7 8 9 10 11 12 13 14 16 17 18 19 20 21 23 24 25 26 27 28 30 31 32 33 34 35 36 37 38 39 40 41 43 44 45 46 47 48 49 50 51 52 53 54 70 71 72 73 74 75 76 77 78 79 80 81 82 83 84 85 86 87 88 89 90 0
e 22 55 56 57 58 59 60 61 62 63 64 65 66 67 68 69 91 92 93 94 95 96 97 98 99 100 101 102 103 104 105 106 107 108 109 110 111 112 113 114 115 116 117 118 119 120 121 122 123 124 125 126 127 128 129 130 131 132 133 134 135 136 137 138 139 140 141 142 143 144 145 146 147 148 149 150 151 152 153 154 155 156 157 158 159 160 161 162 163 164 165 166 167 168 169 170 171 172 173 174 175 176 177 178 179 180 181 182 183 184 185 186 187 188 189 190 191 192 193 194 195 196 197 198 199 200 201 202 203 204 205 206 207 208 209 210 211 212 213 214 215 216 217 218 219 220 221 222 223 224 225 226 227 228 229 230 231 232 233 234 235 236 237 238 239 240 241 242 243 244 245 246 247 248 249 250 251 252 253 254 255 256 257 258 259 260 261 262 263 264 265 266 267 268 269 270 271 272 273 274 275 276 277 278 279 280 281 282 283 284 285 286 287 288 289 290 291 292 293 294 295 296 297 298 299 300 301 302 303 304 305 306 307 308 309 310 311 312 313 314 315 316 317 318 319 320 321 322 323 324 325 326 327 328 329 330 331 332 333 334 335 336 337 338 339 340 341 342 343 344 345 346 347 348 349 350 351 352 353 354 355 356 357 358 359 360 361 362 363 364 365 366 367 368 369 370 371 372 373 374 375 376 377 378 379 380 381 382 383 384 385 386 387 388 389 390 391 392 393 394 395 396 397 398 399 400 401 402 403 404 405 406 407 408 409 410 411 412 413 414 415 416 417 418 419 420 421 422 423 424 425 426 427 428 429 430 431 432 433 434 435 436 437 438 439 440 441 442 443 444 445 446 447 448 449 450 451 452 453 454 455 456 457 458 459 460 461 462 463 464 465 466 467 468 469 470 471 472 473 474 475 476 477 478 479 480 481 482 483 484 485 486 487 488 489 490 491 492 493 494 495 496 497 498 499 500 501 502 503 504 505 506 507 508 509 510 511 512 513 514 515 516 517 518 519 520 521 522 523 524 525 526 527 528 529 530 531 532 533 534 535 536 537 538 539 540 541 542 543 544 545 546 547 548 549 550 551 552 553 554 555 556 557 558 559 560 561 562 563 564 565 566 567 568 569 570 571 572 573 574 575 576 577 578 579 580 581 582 583 584 585 586 587 588 589 590 591 592 593 594 595 596 597 598 599 600 601 602 603 604 605 606 607 608 609 610 611 612 613 614 615 616 617 618 619 620 621 622 623 624 625 626 627 628 629 630 631 632 633 634 635 636 637 638 639 640 641 642 643 644 645 646 647 648 649 650 651 652 653 654 655 656 657 658 659 660 661 662 663 664 665 666 667 668 669 670 671 672 673 674 675 676 677 678 679 680 681 682 683 684 685 686 687 688 689 690 691 692 693 694 695 696 697 698 699 700 701 702 703 704 705 706 707 708 709 710 711 712 713 714 715 716 717 718 719 720 721 722 723 724 725 726 727 728 729 730 731 732 733 734 735 736 737 738 739 740 741 742 743 744 745 746 747 748 749 750 751 752 753 754 755 756 757 758 759 760 761 762 763 764 765 766 767 768 769 770 771 772 773 774 775 776 777 778 779 780 781 782 783 784 785 786 787 788 789 790 791 792 793 794 795 796 797 798 799 800 801 802 803 804 805 806 807 808 809 810 811 812 813 814 815 816 817 818 819 820 821 822 823 824 825 826 827 828 829 830 831 832 833 834 835 836 837 838 839 840 841 842 843 844 845 846 847 848 849 850 851 852 853 854 855 856 857 858 859 860 861 862 863 864 865 866 867 868 869 870 871 872 873 874 875 876 877 878 879 880 881 882 883 884 885 886 887 888 889 890 891 892 893 894 895 896 897 898 899 900 901 902 903 904 905 906 907 908 909 910 911 912 913 914 915 916 917 918 919 920 921 922 923 924 925 926 927 928 929 930 931 932 933 934 935 936 937 938 939 940 941 942 943 944 945 946 0
-946 0
946 -172 0
946 -173 0
946 -174 0
946 -175 0
946 -664 0
946 -803 0
946 -814 0
946 -823 0
946 -854 0
946 -865 0
946 -874 0
946 -905 0
946 -916 0
946 -927 0
946 -936 0
946 -945 0
5 4 8 3 2 1 -171 -170 -944 945 0
944 -940 0
944 -943 0
22 69 68 67 -661 -654 -646 -631 -622 -606 -846 -942 -941 -845 -844 943 0
942 -756 0
942 -842 0
942 -437 0
942 -438 0
942 -439 0
942 -440 0
941 -793 0
941 -912 0
941 -437 0
941 -438 0
941 -439 0
941 -440 0
-939 -169 940 0
939 -829 0
939 -830 0
939 -937 0
939 -938 0
939 -831 0
-235 -234 -233 -232 -827 -687 938 0
-235 -234 -233 -232 -907 -724 937 0
4 6 8 3 2 1 -171 -170 -935 936 0
935 -931 0
935 -934 0
22 69 68 67 -661 -654 -646 -631 -622 -606 -897 -896 -895 -933 -932 934 0
933 -893 0
933 -756 0
933 -437 0
933 -438 0
933 -439 0
933 -440 0
932 -922 0
932 -776 0
932 -437 0
932 -438 0
932 -439 0
932 -440 0
-169 -930 931 0
930 -928 0
930 -929 0
930 -880 0
930 -881 0
930 -882 0
-235 -234 -233 -232 -687 -878 929 0
-235 -234 -233 -232 -707 -917 928 0
7 4 6 8 3 2 -171 -170 -926 927 0
926 -921 0
926 -925 0
22 69 68 67 -661 -654 -646 -631 -622 -606 -892 -891 -890 -924 -923 925 0
924 -898 0
924 -436 0
924 -437 0
924 -438 0
924 -439 0
924 -440 0
923 -922 0
923 -579 0
923 -437 0
923 -438 0
923 -439 0
923 -440 0
-902 -901 -900 922 0
-169 -920 921 0
920 -918 0
920 -919 0
920 -875 0
920 -876 0
920 -877 0
-235 -234 -233 -232 -231 -883 919 0
-235 -234 -233 -232 -374 -917 918 0
917 -885 0
917 -886 0
917 -887 0
7 5 4 8 3 2 -171 -170 -915 916 0
915 -910 0
915 -914 0
22 69 68 67 -661 -654 -646 -631 -622 -606 -841 -840 -839 -913 -911 914 0
913 -912 0
913 -526 0
913 -437 0
913 -438 0
913 -439 0
913 -440 0
-851 -850 -849 912 0
911 -847 0
911 -436 0
911 -437 0
911 -438 0
911 -439 0
911 -440 0
-169 -909 910 0
909 -906 0
909 -908 0
909 -824 0
909 -825 0
909 -826 0
-235 -234 -233 -232 -321 -907 908 0
907 -834 0
907 -835 0
907 -836 0
-235 -234 -233 -232 -231 -832 906 0
7 4 6 8 2 1 -171 -170 -904 905 0
904 -889 0
904 -903 0
22 69 68 67 -661 -654 -646 -631 -622 -606 -902 -901 -900 -899 -894 903 0
902 -560 0
902 -437 0
902 -438 0
902 -439 0
902 -440 0
901 -463 0
901 -793 0
901 -437 0
901 -438 0
901 -439 0
901 -440 0
900 -543 0
900 -526 0
900 -437 0
900 -438 0
900 -439 0
900 -440 0
899 -463 0
899 -898 0
899 -437 0
899 -438 0
899 -439 0
899 -440 0
-897 -896 -895 898 0
897 -793 0
897 -437 0
897 -438 0
897 -439 0
897 -440 0
896 -756 0
896 -526 0
896 -437 0
896 -438 0
896 -439 0
896 -440 0
895 -560 0
895 -776 0
895 -437 0
895 -438 0
895 -439 0
895 -440 0
894 -543 0
894 -893 0
894 -437 0
894 -438 0
894 -439 0
894 -440 0
-892 -891 -890 893 0
892 -526 0
892 -437 0
892 -438 0
892 -439 0
892 -440 0
891 -560 0
891 -579 0
891 -437 0
891 -438 0
891 -439 0
891 -440 0
890 -793 0
890 -436 0
890 -437 0
890 -438 0
890 -439 0
890 -440 0
-169 -888 889 0
888 -879 0
888 -884 0
888 -885 0
888 -886 0
888 -887 0
-235 -234 -233 -232 -355 887 0
-235 -234 -233 -232 -724 -258 886 0
-235 -234 -233 -232 -321 -338 885 0
-235 -234 -233 -232 -883 -258 884 0
883 -880 0
883 -881 0
883 -882 0
-235 -234 -233 -232 -724 882 0
-235 -234 -233 -232 -321 -687 881 0
-235 -234 -233 -232 -707 -355 880 0
-235 -234 -233 -232 -878 -338 879 0
878 -875 0
878 -876 0
878 -877 0
-235 -234 -233 -232 -321 877 0
-235 -234 -233 -232 -374 -355 876 0
-235 -234 -233 -232 -231 -724 875 0
5 6 8 3 2 1 -171 -170 -873 874 0
873 -869 0
873 -872 0
22 69 68 67 -661 -654 -646 -631 -622 -606 -795 -871 -794 -777 -870 872 0
871 -861 0
871 -776 0
871 -437 0
871 -438 0
871 -439 0
871 -440 0
870 -759 0
870 -793 0
870 -437 0
870 -438 0
870 -439 0
870 -440 0
-169 -868 869 0
868 -866 0
868 -708 0
868 -725 0
868 -867 0
868 -726 0
-235 -234 -233 -232 -707 -856 867 0
-235 -234 -233 -232 -724 -690 866 0
7 5 6 8 3 1 -171 -170 -864 865 0
864 -859 0
864 -863 0
22 69 68 67 -661 -654 -646 -631 -622 -606 -758 -757 -734 -862 -860 863 0
862 -861 0
862 -485 0
862 -437 0
862 -438 0
862 -439 0
862 -440 0
-800 -799 -798 861 0
860 -796 0
860 -502 0
860 -437 0
860 -438 0
860 -439 0
860 -440 0
-169 -858 859 0
858 -855 0
858 -857 0
858 -665 0
858 -688 0
858 -689 0
-235 -234 -233 -232 -280 -856 857 0
856 -729 0
856 -730 0
856 -731 0
-235 -234 -233 -232 -297 -727 855 0
7 5 4 8 3 1 -171 -170 -853 854 0
853 -838 0
853 -852 0
22 69 68 67 -661 -654 -646 -631 -622 -606 -851 -850 -849 -848 -843 852 0
851 -485 0
851 -437 0
851 -438 0
851 -439 0
851 -440 0
850 -408 0
850 -579 0
850 -437 0
850 -438 0
850 -439 0
850 -440 0
849 -502 0
849 -776 0
849 -437 0
849 -438 0
849 -439 0
849 -440 0
848 -847 0
848 -502 0
848 -437 0
848 -438 0
848 -439 0
848 -440 0
-846 -845 -844 847 0
846 -776 0
846 -437 0
846 -438 0
846 -439 0
846 -440 0
845 -793 0
845 -485 0
845 -437 0
845 -438 0
845 -439 0
845 -440 0
844 -756 0
844 -579 0
844 -437 0
844 -438 0
844 -439 0
844 -440 0
843 -408 0
843 -842 0
843 -437 0
843 -438 0
843 -439 0
843 -440 0
-841 -840 -839 842 0
841 -485 0
841 -526 0
841 -437 0
841 -438 0
841 -439 0
841 -440 0
840 -579 0
840 -437 0
840 -438 0
840 -439 0
840 -440 0
839 -436 0
839 -776 0
839 -437 0
839 -438 0
839 -439 0
839 -440 0
-169 -837 838 0
837 -828 0
837 -833 0
837 -834 0
837 -835 0
837 -836 0
-235 -234 -233 -232 -280 836 0
-235 -234 -233 -232 -374 -203 835 0
-235 -234 -233 -232 -707 -297 834 0
-235 -234 -233 -232 -297 -832 833 0
832 -829 0
832 -830 0
832 -831 0
-235 -234 -233 -232 -707 831 0
-235 -234 -233 -232 -280 -724 830 0
-235 -234 -233 -232 -374 -687 829 0
-235 -234 -233 -232 -827 -203 828 0
827 -824 0
827 -825 0
827 -826 0
-235 -234 -233 -232 -321 -280 826 0
-235 -234 -233 -232 -374 825 0
-235 -234 -233 -232 -707 -231 824 0
7 5 4 6 3 1 -171 -170 -822 823 0
822 -818 0
822 -821 0
22 69 68 67 -661 -654 -646 -631 -622 -606 -503 -820 -819 -486 -441 821 0
820 -810 0
820 -408 0
820 -437 0
820 -438 0
820 -439 0
820 -440 0
819 -563 0
819 -485 0
819 -437 0
819 -438 0
819 -439 0
819 -440 0
-169 -817 818 0
817 -236 0
817 -281 0
817 -815 0
817 -816 0
817 -298 0
-235 -234 -233 -232 -203 -805 816 0
-235 -234 -233 -232 -280 -358 815 0
7 5 4 6 2 1 -171 -170 -813 814 0
813 -808 0
813 -812 0
22 69 68 67 -661 -654 -646 -631 -622 -606 -562 -561 -544 -811 -809 812 0
811 -810 0
811 -543 0
811 -437 0
811 -438 0
811 -439 0
811 -440 0
-583 -582 -581 810 0
809 -504 0
809 -560 0
809 -437 0
809 -438 0
809 -439 0
809 -440 0
-169 -807 808 0
807 -804 0
807 -806 0
807 -339 0
807 -356 0
807 -357 0
-235 -234 -233 -232 -338 -805 806 0
805 -376 0
805 -377 0
805 -378 0
-235 -234 -233 -232 -355 -299 804 0
7 5 6 8 2 1 -171 -170 -802 803 0
802 -733 0
802 -801 0
22 69 68 67 -661 -654 -646 -631 -622 -606 -800 -799 -798 -797 -760 801 0
800 -543 0
800 -437 0
800 -438 0
800 -439 0
800 -440 0
799 -560 0
799 -408 0
799 -437 0
799 -438 0
799 -439 0
799 -440 0
798 -463 0
798 -756 0
798 -437 0
798 -438 0
798 -439 0
798 -440 0
797 -796 0
797 -463 0
797 -437 0
797 -438 0
797 -439 0
797 -440 0
-795 -794 -777 796 0
795 -756 0
795 -437 0
795 -438 0
795 -439 0
795 -440 0
794 -793 0
794 -408 0
794 -437 0
794 -438 0
794 -439 0
794 -440 0
-792 -787 -782 793 0
792 -520 0
792 -521 0
792 -788 0
792 -789 0
792 -790 0
792 -753 0
792 -754 0
792 -791 0
792 -77 0
792 -76 0
792 -48 0
792 -47 0
792 -46 0
792 -45 0
792 -43 0
-50 61 791 0
-53 -61 790 0
-14 -56 789 0
-11 56 788 0
787 -513 0
787 -514 0
787 -783 0
787 -784 0
787 -746 0
787 -747 0
787 -785 0
787 -786 0
787 -74 0
787 -73 0
787 -35 0
787 -34 0
787 -33 0
787 -32 0
787 -30 0
-37 61 786 0
-12 -56 785 0
-40 -61 784 0
-10 56 783 0
782 -505 0
782 -506 0
782 -778 0
782 -779 0
782 -739 0
782 -740 0
782 -780 0
782 -781 0
782 -71 0
782 -70 0
782 -21 0
782 -20 0
782 -19 0
782 -18 0
782 -16 0
-24 61 781 0
-9 56 780 0
-27 -61 779 0
-13 -56 778 0
777 -543 0
777 -776 0
777 -437 0
777 -438 0
777 -439 0
777 -440 0
-775 -770 -765 776 0
775 -478 0
775 -479 0
775 -771 0
775 -772 0
775 -773 0
775 -774 0
775 -753 0
775 -754 0
775 -78 0
775 -77 0
775 -76 0
775 -48 0
775 -46 0
775 -45 0
775 -43 0
-14 -55 774 0
-11 55 773 0
-53 -60 772 0
-50 60 771 0
770 -471 0
770 -766 0
770 -767 0
770 -768 0
770 -769 0
770 -475 0
770 -746 0
770 -747 0
770 -75 0
770 -74 0
770 -73 0
770 -35 0
770 -33 0
770 -32 0
770 -30 0
-40 -60 769 0
-12 -55 768 0
-10 55 767 0
-37 60 766 0
765 -464 0
765 -465 0
765 -761 0
765 -762 0
765 -763 0
765 -764 0
765 -739 0
765 -740 0
765 -72 0
765 -71 0
765 -70 0
765 -21 0
765 -19 0
765 -18 0
765 -16 0
-13 -55 764 0
-9 55 763 0
-27 -60 762 0
-24 60 761 0
760 -759 0
760 -560 0
760 -437 0
760 -438 0
760 -439 0
760 -440 0
-758 -757 -734 759 0
758 -408 0
758 -437 0
758 -438 0
758 -439 0
758 -440 0
757 -502 0
757 -756 0
757 -437 0
757 -438 0
757 -439 0
757 -440 0
-755 -748 -741 756 0
755 -749 0
755 -750 0
755 -751 0
755 -752 0
755 -401 0
755 -402 0
755 -87 0
755 -753 0
755 -754 0
755 -77 0
755 -76 0
755 -48 0
755 -47 0
755 -45 0
755 -43 0
-22 -52 754 0
22 -49 753 0
-14 -58 752 0
-11 58 751 0
-53 -63 750 0
-50 63 749 0
748 -742 0
748 -743 0
748 -744 0
748 -745 0
748 -392 0
748 -393 0
748 -746 0
748 -747 0
748 -86 0
748 -74 0
748 -73 0
748 -35 0
748 -34 0
748 -32 0
748 -30 0
-22 -39 747 0
-36 22 746 0
-12 -58 745 0
-10 58 744 0
-40 -63 743 0
-37 63 742 0
741 -735 0
741 -736 0
741 -737 0
741 -738 0
741 -383 0
741 -384 0
741 -739 0
741 -740 0
741 -85 0
741 -71 0
741 -70 0
741 -21 0
741 -20 0
741 -18 0
741 -16 0
-22 -26 740 0
-23 22 739 0
-13 -58 738 0
-9 58 737 0
-27 -63 736 0
-24 63 735 0
734 -543 0
734 -485 0
734 -437 0
734 -438 0
734 -439 0
734 -440 0
-169 -732 733 0
732 -691 0
732 -728 0
732 -729 0
732 -730 0
732 -731 0
-235 -234 -233 -232 -338 731 0
-235 -234 -233 -232 -203 -355 730 0
-235 -234 -233 -232 -687 -258 729 0
-235 -234 -233 -232 -258 -727 728 0
727 -708 0
727 -725 0
727 -726 0
-235 -234 -233 -232 -687 726 0
-235 -234 -233 -232 -203 -724 725 0
724 -713 0
724 -718 0
724 -723 0
76 -722 48 46 45 43 47 77 -685 -684 -721 -720 -719 -316 -315 723 0
722 50 0
722 -61 0
721 61 0
721 53 0
720 56 0
720 14 0
719 -56 0
719 11 0
32 30 33 35 34 -717 74 73 -716 -678 -677 -715 -714 -309 -308 718 0
717 -61 0
717 37 0
716 56 0
716 12 0
715 40 0
715 61 0
714 -56 0
714 10 0
21 20 19 18 16 -712 71 70 -711 -671 -670 -710 -709 -301 -300 713 0
712 -61 0
712 24 0
711 -56 0
711 9 0
710 61 0
710 27 0
709 56 0
709 13 0
-235 -234 -233 -232 -707 -338 708 0
707 -696 0
707 -701 0
707 -706 0
76 48 46 45 43 78 77 -685 -684 -705 -704 -703 -702 -274 -273 706 0
705 55 0
705 14 0
704 -55 0
704 11 0
703 60 0
703 53 0
702 50 0
702 -60 0
32 30 33 35 75 74 73 -678 -677 -270 -700 -699 -698 -697 -266 701 0
700 60 0
700 40 0
699 55 0
699 12 0
698 -55 0
698 10 0
697 -60 0
697 37 0
21 19 18 16 72 71 70 -671 -670 -695 -694 -693 -692 -260 -259 696 0
695 55 0
695 13 0
694 -55 0
694 9 0
693 60 0
693 27 0
692 -60 0
692 24 0
-235 -234 -233 -232 -355 -690 691 0
690 -665 0
690 -688 0
690 -689 0
-235 -234 -233 -232 -203 689 0
-235 -234 -233 -232 -687 -297 688 0
687 -672 0
687 -679 0
687 -686 0
76 48 45 43 47 77 -685 -684 87 -197 -196 -683 -682 -681 -680 686 0
685 52 0
685 22 0
684 49 0
684 -22 0
683 58 0
683 14 0
682 -58 0
682 11 0
681 63 0
681 53 0
680 50 0
680 -63 0
32 30 35 34 74 73 86 -678 -677 -188 -187 -676 -675 -674 -673 679 0
678 39 0
678 22 0
677 36 0
677 -22 0
676 58 0
676 12 0
675 -58 0
675 10 0
674 63 0
674 40 0
673 -63 0
673 37 0
21 20 18 16 71 70 85 -671 -670 -179 -178 -669 -668 -667 -666 672 0
671 26 0
671 22 0
670 23 0
670 -22 0
669 58 0
669 13 0
668 -58 0
668 9 0
667 63 0
667 27 0
666 -63 0
666 24 0
-235 -234 -233 -232 -280 -338 665 0
7 5 4 6 3 2 -171 -170 -663 664 0
663 -380 0
663 -662 0
22 69 68 67 -661 -654 -646 -631 -622 -606 -583 -582 -581 -580 -527 662 0
661 -657 0
661 -660 0
57 -637 -636 -659 -658 660 0
659 -650 0
659 61 0
658 -634 0
658 62 0
65 -596 -656 -595 -655 657 0
656 -601 0
656 60 0
655 -623 0
655 66 0
654 -649 0
654 -653 0
59 -633 -632 -652 -651 653 0
652 -638 0
652 64 0
651 -650 0
651 63 0
55 -641 -640 650 0
66 -585 -648 -584 -647 649 0
648 -590 0
648 60 0
647 -607 0
647 65 0
646 -642 0
646 -645 0
60 -644 -612 -611 -643 645 0
644 -617 0
644 65 0
643 -627 0
643 66 0
55 -641 -640 -639 -635 642 0
641 57 0
641 56 0
640 58 0
640 59 0
639 -638 0
639 56 0
57 -637 -636 638 0
637 61 0
637 55 0
636 59 0
636 62 0
635 -634 0
635 58 0
59 -633 -632 634 0
633 63 0
633 55 0
632 57 0
632 64 0
631 -626 0
631 -630 0
61 -616 -615 -629 -628 630 0
629 -613 0
629 57 0
628 -627 0
628 62 0
63 -620 -619 627 0
56 -600 -599 -625 -624 626 0
625 -597 0
625 55 0
624 -623 0
624 58 0
64 -604 -603 623 0
622 -610 0
622 -621 0
63 -620 -619 -618 -614 621 0
620 59 0
620 60 0
619 64 0
619 61 0
618 -617 0
618 64 0
61 -616 -615 617 0
616 62 0
616 63 0
615 57 0
615 60 0
614 -613 0
614 59 0
60 -612 -611 613 0
612 65 0
612 61 0
611 63 0
611 66 0
58 -589 -588 -609 -608 610 0
609 -586 0
609 55 0
608 -607 0
608 56 0
62 -593 -592 607 0
606 -594 0
606 -605 0
64 -604 -603 -602 -598 605 0
604 63 0
604 56 0
603 59 0
603 65 0
602 -601 0
602 63 0
56 -600 -599 601 0
600 58 0
600 64 0
599 65 0
599 55 0
598 -597 0
598 59 0
65 -596 -595 597 0
596 60 0
596 56 0
595 64 0
595 66 0
62 -593 -592 -591 -587 594 0
593 58 0
593 61 0
592 57 0
592 66 0
591 -590 0
591 61 0
58 -589 -588 590 0
589 62 0
589 56 0
588 66 0
588 55 0
587 -586 0
587 57 0
66 -585 -584 586 0
585 58 0
585 60 0
584 62 0
584 65 0
583 -436 0
583 -437 0
583 -438 0
583 -439 0
583 -440 0
582 -502 0
582 -526 0
582 -437 0
582 -438 0
582 -439 0
582 -440 0
581 -463 0
581 -579 0
581 -437 0
581 -438 0
581 -439 0
581 -440 0
580 -563 0
580 -579 0
580 -437 0
580 -438 0
580 -439 0
580 -440 0
-578 -573 -568 579 0
578 -478 0
578 -479 0
578 -574 0
578 -575 0
578 -427 0
578 -428 0
578 -90 0
578 -576 0
578 -577 0
578 -81 0
578 -77 0
578 -76 0
578 -48 0
578 -47 0
578 -46 0
-11 59 577 0
-50 66 576 0
-53 -66 575 0
-14 -59 574 0
573 -471 0
573 -569 0
573 -570 0
573 -418 0
573 -419 0
573 -475 0
573 -89 0
573 -571 0
573 -572 0
573 -80 0
573 -74 0
573 -73 0
573 -35 0
573 -34 0
573 -33 0
-12 -59 572 0
-37 66 571 0
-40 -66 570 0
-10 59 569 0
568 -464 0
568 -465 0
568 -564 0
568 -565 0
568 -409 0
568 -410 0
568 -566 0
568 -88 0
568 -567 0
568 -79 0
568 -71 0
568 -70 0
568 -21 0
568 -20 0
568 -19 0
-24 66 567 0
-9 59 566 0
-27 -66 565 0
-13 -59 564 0
-562 -561 -544 563 0
562 -463 0
562 -437 0
562 -438 0
562 -439 0
562 -440 0
561 -560 0
561 -502 0
561 -437 0
561 -438 0
561 -439 0
561 -440 0
-559 -554 -549 560 0
559 -520 0
559 -521 0
559 -456 0
559 -555 0
559 -556 0
559 -557 0
559 -461 0
559 -558 0
559 -81 0
559 -78 0
559 -77 0
559 -76 0
559 -48 0
559 -46 0
559 -45 0
-50 57 558 0
-14 -65 557 0
-11 65 556 0
-53 -57 555 0
554 -513 0
554 -514 0
554 -449 0
554 -550 0
554 -551 0
554 -454 0
554 -552 0
554 -553 0
554 -80 0
554 -75 0
554 -74 0
554 -73 0
554 -35 0
554 -33 0
554 -32 0
-37 57 553 0
-12 -65 552 0
-10 65 551 0
-40 -57 550 0
549 -505 0
549 -506 0
549 -442 0
549 -545 0
549 -447 0
549 -546 0
549 -547 0
549 -548 0
549 -79 0
549 -72 0
549 -71 0
549 -70 0
549 -21 0
549 -19 0
549 -18 0
-24 57 548 0
-27 -57 547 0
-9 65 546 0
-13 -65 545 0
544 -543 0
544 -436 0
544 -437 0
544 -438 0
544 -439 0
544 -440 0
-542 -537 -532 543 0
542 -538 0
542 -539 0
542 -456 0
542 -540 0
542 -541 0
542 -401 0
542 -402 0
542 -87 0
542 -461 0
542 -81 0
542 -77 0
542 -76 0
542 -48 0
542 -47 0
542 -45 0
-14 -66 541 0
-11 66 540 0
-50 59 539 0
-53 -59 538 0
537 -449 0
537 -533 0
537 -392 0
537 -393 0
537 -534 0
537 -454 0
537 -535 0
537 -536 0
537 -86 0
537 -80 0
537 -74 0
537 -73 0
537 -35 0
537 -34 0
537 -32 0
-37 59 536 0
-12 -66 535 0
-40 -59 534 0
-10 66 533 0
532 -442 0
532 -528 0
532 -383 0
532 -384 0
532 -447 0
532 -529 0
532 -530 0
532 -531 0
532 -85 0
532 -79 0
532 -71 0
532 -70 0
532 -21 0
532 -20 0
532 -18 0
-24 59 531 0
-27 -59 530 0
-9 66 529 0
-13 -66 528 0
527 -504 0
527 -526 0
527 -437 0
527 -438 0
527 -439 0
527 -440 0
-525 -518 -511 526 0
525 -519 0
525 -520 0
525 -521 0
525 -522 0
525 -523 0
525 -524 0
525 -427 0
525 -428 0
525 -90 0
525 -84 0
525 -81 0
525 -77 0
525 -76 0
525 -47 0
525 -46 0
-53 -62 524 0
-50 62 523 0
-14 -64 522 0
-54 -68 521 0
-51 68 520 0
-11 64 519 0
518 -512 0
518 -513 0
518 -514 0
518 -515 0
518 -516 0
518 -517 0
518 -418 0
518 -419 0
518 -89 0
518 -83 0
518 -80 0
518 -74 0
518 -73 0
518 -34 0
518 -33 0
-40 -62 517 0
-37 62 516 0
-12 -64 515 0
-41 -68 514 0
-38 68 513 0
-10 64 512 0
511 -505 0
511 -506 0
511 -507 0
511 -508 0
511 -509 0
511 -510 0
511 -409 0
511 -410 0
511 -88 0
511 -82 0
511 -79 0
511 -71 0
511 -70 0
511 -20 0
511 -19 0
-27 -62 510 0
-24 62 509 0
-13 -64 508 0
-9 64 507 0
-28 -68 506 0
-25 68 505 0
-503 -486 -441 504 0
503 -502 0
503 -437 0
503 -438 0
503 -439 0
503 -440 0
-501 -496 -491 502 0
501 -497 0
501 -498 0
501 -431 0
501 -499 0
501 -500 0
501 -405 0
501 -406 0
501 -434 0
501 -81 0
501 -76 0
501 -48 0
501 -47 0
501 -46 0
501 -45 0
501 -44 0
-53 -56 500 0
-50 56 499 0
-14 -61 498 0
-11 61 497 0
496 -422 0
496 -492 0
496 -493 0
496 -425 0
496 -396 0
496 -397 0
496 -494 0
496 -495 0
496 -80 0
496 -73 0
496 -35 0
496 -34 0
496 -33 0
496 -32 0
496 -31 0
-10 61 495 0
-12 -61 494 0
-40 -56 493 0
-37 56 492 0
491 -413 0
491 -414 0
491 -487 0
491 -488 0
491 -387 0
491 -388 0
491 -489 0
491 -490 0
491 -79 0
491 -70 0
491 -21 0
491 -20 0
491 -19 0
491 -18 0
491 -17 0
-13 -61 490 0
-9 61 489 0
-24 56 488 0
-27 -56 487 0
486 -463 0
486 -485 0
486 -437 0
486 -438 0
486 -439 0
486 -440 0
-484 -477 -470 485 0
484 -478 0
484 -479 0
484 -480 0
484 -481 0
484 -482 0
484 -405 0
484 -406 0
484 -483 0
484 -84 0
484 -81 0
484 -77 0
484 -76 0
484 -47 0
484 -46 0
484 -45 0
-11 57 483 0
-53 -65 482 0
-50 65 481 0
-14 -57 480 0
-51 67 479 0
-54 -67 478 0
477 -471 0
477 -472 0
477 -473 0
477 -474 0
477 -475 0
477 -396 0
477 -397 0
477 -476 0
477 -83 0
477 -80 0
477 -74 0
477 -73 0
477 -34 0
477 -33 0
477 -32 0
-12 -57 476 0
-41 -67 475 0
-40 -65 474 0
-37 65 473 0
-10 57 472 0
-38 67 471 0
470 -464 0
470 -465 0
470 -466 0
470 -467 0
470 -468 0
470 -387 0
470 -388 0
470 -469 0
470 -82 0
470 -79 0
470 -71 0
470 -70 0
470 -20 0
470 -19 0
470 -18 0
-9 57 469 0
-27 -65 468 0
-24 65 467 0
-13 -57 466 0
-25 67 465 0
-28 -67 464 0
-462 -455 -448 463 0
462 -456 0
462 -457 0
462 -458 0
462 -459 0
462 -460 0
462 -431 0
462 -461 0
462 -434 0
462 -84 0
462 -81 0
462 -76 0
462 -47 0
462 -46 0
462 -45 0
462 -44 0
-49 67 461 0
-53 -55 460 0
-50 55 459 0
-14 -60 458 0
-11 60 457 0
-52 -67 456 0
455 -449 0
455 -450 0
455 -451 0
455 -452 0
455 -453 0
455 -422 0
455 -425 0
455 -454 0
455 -83 0
455 -80 0
455 -73 0
455 -34 0
455 -33 0
455 -32 0
455 -31 0
-36 67 454 0
-40 -55 453 0
-37 55 452 0
-12 -60 451 0
-10 60 450 0
-39 -67 449 0
448 -442 0
448 -443 0
448 -444 0
448 -445 0
448 -446 0
448 -413 0
448 -414 0
448 -447 0
448 -82 0
448 -79 0
448 -70 0
448 -20 0
448 -19 0
448 -18 0
448 -17 0
-23 67 447 0
-27 -55 446 0
-24 55 445 0
-13 -60 444 0
-9 60 443 0
-26 -67 442 0
441 -408 0
441 -436 0
441 -437 0
441 -438 0
441 -439 0
441 -440 0
-10 9 440 0
-11 10 439 0
-13 12 438 0
-12 14 437 0
-435 -426 -417 436 0
435 -427 0
435 -428 0
435 -429 0
435 -430 0
435 -431 0
435 -432 0
435 -433 0
435 -90 0
435 -434 0
435 -81 0
435 -76 0
435 -48 0
435 -47 0
435 -46 0
435 -44 0
-22 -54 434 0
-53 -58 433 0
-50 58 432 0
22 -51 431 0
-14 -63 430 0
-11 63 429 0
-52 -69 428 0
-49 69 427 0
426 -418 0
426 -419 0
426 -420 0
426 -421 0
426 -422 0
426 -423 0
426 -424 0
426 -425 0
426 -89 0
426 -80 0
426 -73 0
426 -35 0
426 -34 0
426 -33 0
426 -31 0
-22 -41 425 0
-40 -58 424 0
-37 58 423 0
-38 22 422 0
-12 -63 421 0
-10 63 420 0
-39 -69 419 0
-36 69 418 0
417 -409 0
417 -410 0
417 -411 0
417 -412 0
417 -413 0
417 -414 0
417 -415 0
417 -416 0
417 -88 0
417 -79 0
417 -70 0
417 -21 0
417 -20 0
417 -19 0
417 -17 0
-27 -58 416 0
-24 58 415 0
-22 -28 414 0
-25 22 413 0
-13 -63 412 0
-9 63 411 0
-26 -69 410 0
-23 69 409 0
-407 -398 -389 408 0
407 -399 0
407 -400 0
407 -401 0
407 -402 0
407 -403 0
407 -404 0
407 -87 0
407 -405 0
407 -406 0
407 -81 0
407 -78 0
407 -77 0
407 -76 0
407 -48 0
407 -45 0
-52 -68 406 0
-49 68 405 0
-14 -62 404 0
-11 62 403 0
-54 -69 402 0
-51 69 401 0
-53 -64 400 0
-50 64 399 0
398 -390 0
398 -391 0
398 -392 0
398 -393 0
398 -394 0
398 -395 0
398 -396 0
398 -397 0
398 -86 0
398 -80 0
398 -75 0
398 -74 0
398 -73 0
398 -35 0
398 -32 0
-39 -68 397 0
-36 68 396 0
-12 -62 395 0
-10 62 394 0
-41 -69 393 0
-38 69 392 0
-40 -64 391 0
-37 64 390 0
389 -381 0
389 -382 0
389 -383 0
389 -384 0
389 -385 0
389 -386 0
389 -387 0
389 -388 0
389 -85 0
389 -79 0
389 -72 0
389 -71 0
389 -70 0
389 -21 0
389 -18 0
-26 -68 388 0
-23 68 387 0
-13 -62 386 0
-9 62 385 0
-28 -69 384 0
-25 69 383 0
-27 -64 382 0
-24 64 381 0
-169 -379 380 0
379 -322 0
379 -375 0
379 -376 0
379 -377 0
379 -378 0
-235 -234 -233 -232 -231 378 0
-235 -234 -233 -232 -321 -297 377 0
-235 -234 -233 -232 -374 -258 376 0
-235 -234 -233 -232 -374 -358 375 0
374 -363 0
374 -368 0
374 -373 0
76 81 48 46 47 77 -372 -371 90 -223 -222 -370 -369 -274 -273 373 0
372 -59 0
372 11 0
371 50 0
371 -66 0
370 66 0
370 53 0
369 59 0
369 14 0
33 35 34 74 73 80 -367 -366 89 -270 -214 -213 -365 -364 -266 368 0
367 59 0
367 12 0
366 -66 0
366 37 0
365 40 0
365 66 0
364 -59 0
364 10 0
21 20 19 79 71 70 -362 88 -361 -205 -204 -360 -359 -260 -259 363 0
362 -66 0
362 24 0
361 -59 0
361 9 0
360 66 0
360 27 0
359 59 0
359 13 0
358 -339 0
358 -356 0
358 -357 0
-235 -234 -233 -232 -258 357 0
-235 -234 -233 -232 -297 -355 356 0
355 -344 0
355 -349 0
355 -354 0
76 81 48 46 45 78 77 -353 -256 -352 -351 -350 -251 -316 -315 354 0
353 50 0
353 -57 0
352 65 0
352 14 0
351 -65 0
351 11 0
350 57 0
350 53 0
32 33 35 75 74 73 80 -348 -249 -347 -346 -345 -244 -309 -308 349 0
348 -57 0
348 37 0
347 65 0
347 12 0
346 -65 0
346 10 0
345 57 0
345 40 0
21 19 18 79 72 71 70 -343 -342 -242 -341 -340 -237 -301 -300 344 0
343 -57 0
343 24 0
342 57 0
342 27 0
341 -65 0
341 9 0
340 65 0
340 13 0
-235 -234 -233 -232 -231 -338 339 0
338 -327 0
338 -332 0
338 -337 0
76 81 48 45 47 77 -256 87 -197 -196 -336 -335 -251 -334 -333 337 0
336 66 0
336 14 0
335 -66 0
335 11 0
334 50 0
334 -59 0
333 59 0
333 53 0
32 35 34 74 73 86 80 -331 -330 -249 -329 -188 -187 -328 -244 332 0
331 -59 0
331 37 0
330 66 0
330 12 0
329 59 0
329 40 0
328 -66 0
328 10 0
21 20 18 79 71 70 85 -326 -325 -324 -242 -179 -178 -323 -237 327 0
326 -59 0
326 24 0
325 59 0
325 27 0
324 -66 0
324 9 0
323 66 0
323 13 0
-235 -234 -233 -232 -321 -299 322 0
321 -306 0
321 -313 0
321 -320 0
76 81 46 47 77 84 90 -223 -222 -319 -318 -317 -316 -315 -314 320 0
319 62 0
319 53 0
318 50 0
318 -62 0
317 64 0
317 14 0
316 68 0
316 54 0
315 51 0
315 -68 0
314 -64 0
314 11 0
33 34 74 73 83 80 89 -214 -213 -312 -311 -310 -309 -308 -307 313 0
312 62 0
312 40 0
311 -62 0
311 37 0
310 64 0
310 12 0
309 41 0
309 68 0
308 -68 0
308 38 0
307 -64 0
307 10 0
20 19 79 71 70 82 88 -205 -204 -305 -304 -303 -302 -301 -300 306 0
305 62 0
305 27 0
304 -62 0
304 24 0
303 64 0
303 13 0
302 -64 0
302 9 0
301 68 0
301 28 0
300 -68 0
300 25 0
299 -236 0
299 -281 0
299 -298 0
-235 -234 -233 -232 -297 298 0
297 -286 0
297 -291 0
297 -296 0
76 81 48 46 45 47 44 -229 -201 -200 -295 -294 -226 -293 -292 296 0
295 56 0
295 53 0
294 50 0
294 -56 0
293 61 0
293 14 0
292 -61 0
292 11 0
32 31 33 35 34 73 80 -290 -289 -192 -191 -220 -288 -287 -217 291 0
290 -61 0
290 10 0
289 61 0
289 12 0
288 40 0
288 56 0
287 -56 0
287 37 0
21 20 19 18 17 79 70 -285 -284 -183 -182 -283 -282 -209 -208 286 0
285 61 0
285 13 0
284 -61 0
284 9 0
283 -56 0
283 24 0
282 56 0
282 27 0
-235 -234 -233 -232 -280 -258 281 0
280 -265 0
280 -272 0
280 -279 0
76 81 46 45 47 77 84 -278 -201 -200 -277 -276 -275 -274 -273 279 0
278 -57 0
278 11 0
277 65 0
277 53 0
276 50 0
276 -65 0
275 57 0
275 14 0
274 51 0
274 -67 0
273 67 0
273 54 0
32 33 34 74 73 83 80 -271 -192 -191 -270 -269 -268 -267 -266 272 0
271 57 0
271 12 0
270 41 0
270 67 0
269 65 0
269 40 0
268 -65 0
268 37 0
267 -57 0
267 10 0
266 -67 0
266 38 0
20 19 18 79 71 70 82 -264 -183 -182 -263 -262 -261 -260 -259 265 0
264 -57 0
264 9 0
263 65 0
263 27 0
262 -65 0
262 24 0
261 57 0
261 13 0
260 -67 0
260 25 0
259 67 0
259 28 0
258 -243 0
258 -250 0
258 -257 0
76 81 46 45 47 84 44 -229 -256 -226 -255 -254 -253 -252 -251 257 0
256 49 0
256 -67 0
255 55 0
255 53 0
254 50 0
254 -55 0
253 60 0
253 14 0
252 -60 0
252 11 0
251 67 0
251 52 0
32 31 33 34 73 83 80 -249 -220 -217 -248 -247 -246 -245 -244 250 0
249 -67 0
249 36 0
248 40 0
248 55 0
247 -55 0
247 37 0
246 60 0
246 12 0
245 -60 0
245 10 0
244 67 0
244 39 0
20 19 18 17 79 70 82 -242 -209 -208 -241 -240 -239 -238 -237 243 0
242 -67 0
242 23 0
241 55 0
241 27 0
240 -55 0
240 24 0
239 60 0
239 13 0
238 -60 0
238 9 0
237 67 0
237 26 0
-235 -234 -233 -232 -231 -203 236 0
235 10 0
235 -9 0
234 11 0
234 -10 0
233 13 0
233 -12 0
232 12 0
232 -14 0
231 -212 0
231 -221 0
231 -230 0
76 81 48 46 47 44 -229 90 -228 -227 -226 -225 -224 -223 -222 230 0
229 54 0
229 22 0
228 58 0
228 53 0
227 50 0
227 -58 0
226 51 0
226 -22 0
225 63 0
225 14 0
224 -63 0
224 11 0
223 69 0
223 52 0
222 49 0
222 -69 0
31 33 35 34 73 80 89 -220 -219 -218 -217 -216 -215 -214 -213 221 0
220 41 0
220 22 0
219 58 0
219 40 0
218 -58 0
218 37 0
217 38 0
217 -22 0
216 63 0
216 12 0
215 -63 0
215 10 0
214 69 0
214 39 0
213 -69 0
213 36 0
21 20 19 17 79 70 88 -211 -210 -209 -208 -207 -206 -205 -204 212 0
211 58 0
211 27 0
210 -58 0
210 24 0
209 28 0
209 22 0
208 25 0
208 -22 0
207 63 0
207 13 0
206 -63 0
206 9 0
205 69 0
205 26 0
204 -69 0
204 23 0
203 -184 0
203 -193 0
203 -202 0
76 81 48 45 78 77 -201 -200 87 -199 -198 -197 -196 -195 -194 202 0
201 68 0
201 52 0
200 49 0
200 -68 0
199 62 0
199 14 0
198 -62 0
198 11 0
197 69 0
197 54 0
196 51 0
196 -69 0
195 64 0
195 53 0
194 50 0
194 -64 0
32 35 75 74 73 86 80 -192 -191 -190 -189 -188 -187 -186 -185 193 0
192 68 0
192 39 0
191 -68 0
191 36 0
190 62 0
190 12 0
189 -62 0
189 10 0
188 41 0
188 69 0
187 -69 0
187 38 0
186 64 0
186 40 0
185 -64 0
185 37 0
21 18 79 72 71 70 85 -183 -182 -181 -180 -179 -178 -177 -176 184 0
183 68 0
183 26 0
182 -68 0
182 23 0
181 62 0
181 13 0
180 -62 0
180 9 0
179 69 0
179 28 0
178 -69 0
178 25 0
177 64 0
177 27 0
176 -64 0
176 24 0
5 4 6 3 2 1 -171 -170 -169 175 0
7 5 4 8 2 1 -171 -170 -169 174 0
7 4 6 8 3 1 -171 -170 -169 173 0
7 5 6 8 3 2 -171 -170 -169 172 0
171 -7 0
171 -3 0
171 -2 0
171 -1 0
170 -8 0
170 -6 0
170 -5 0
170 -4 0
169 -113 0
169 -129 0
169 -138 0
169 -153 0
169 -161 0
169 -168 0
169 -69 0
169 -68 0
169 -67 0
169 -22 0
-167 -164 168 0
167 -165 0
167 -166 0
167 -143 0
167 -144 0
167 -57 0
-61 -157 166 0
-62 -141 165 0
164 -162 0
164 -102 0
164 -163 0
164 -103 0
164 -65 0
-60 -108 163 0
-66 -130 162 0
-160 -156 161 0
160 -158 0
160 -159 0
160 -139 0
160 -140 0
160 -59 0
-64 -145 159 0
-63 -157 158 0
157 -147 0
157 -148 0
157 -55 0
156 -154 0
156 -91 0
156 -155 0
156 -92 0
156 -66 0
-60 -97 155 0
-65 -114 154 0
-152 -149 153 0
152 -150 0
152 -118 0
152 -119 0
152 -151 0
152 -60 0
-65 -124 151 0
-66 -134 150 0
149 -142 0
149 -146 0
149 -147 0
149 -148 0
149 -55 0
-56 -57 148 0
-58 -59 147 0
-56 -145 146 0
145 -143 0
145 -144 0
145 -57 0
-55 -61 144 0
-59 -62 143 0
-58 -141 142 0
141 -139 0
141 -140 0
141 -59 0
-55 -63 140 0
-57 -64 139 0
-137 -133 138 0
137 -135 0
137 -136 0
137 -122 0
137 -123 0
137 -61 0
-57 -120 136 0
-62 -134 135 0
134 -126 0
134 -127 0
134 -63 0
133 -131 0
133 -132 0
133 -106 0
133 -107 0
133 -56 0
-55 -104 132 0
-58 -130 131 0
130 -110 0
130 -111 0
130 -64 0
-128 -117 129 0
128 -121 0
128 -125 0
128 -126 0
128 -127 0
128 -63 0
-59 -60 127 0
-61 -64 126 0
-64 -124 125 0
124 -122 0
124 -123 0
124 -61 0
-62 -63 123 0
-57 -60 122 0
-59 -120 121 0
120 -118 0
120 -119 0
120 -60 0
-61 -65 119 0
-63 -66 118 0
117 -115 0
117 -116 0
117 -95 0
117 -96 0
117 -58 0
-55 -93 116 0
-56 -114 115 0
114 -99 0
114 -100 0
114 -62 0
-112 -101 113 0
112 -105 0
112 -109 0
112 -110 0
112 -111 0
112 -64 0
-56 -63 111 0
-59 -65 110 0
-63 -108 109 0
108 -106 0
108 -107 0
108 -56 0
-58 -64 107 0
-55 -65 106 0
-59 -104 105 0
104 -102 0
104 -103 0
104 -65 0
-56 -60 103 0
-64 -66 102 0
101 -94 0
101 -98 0
101 -99 0
101 -100 0
101 -62 0
-58 -61 100 0
-57 -66 99 0
-61 -97 98 0
97 -95 0
97 -96 0
97 -58 0
-56 -62 96 0
-55 -66 95 0
-57 -93 94 0
93 -91 0
93 -92 0
93 -66 0
-58 -60 92 0
-62 -65 91 0
